11665 11478 9868
9833 11191 11380
10428 10764 11418
9725 12140 10577
12649 10141 10159
8530 12572 9197
9737 9609 11654
10179 11463 11271
12921 9006 9219
12190 10902 10099
10087 10667 11467
9495 12347 9872
9281 10823 11512
12210 10729 10543
12941 8537 8713
10980 11132 11286
10330 12056 10489
11861 11205 10245
11823 10554 10924
11326 11404 11177
12944 9063 8576
10100 12263 9784
11295 11829 10158
